%%%%%%%%%%%%%%%%%%%%%%%%%%%%%%%%%%%%%%%%%%%%%%%%%%%%%%%%%%%%%%%%%%%%%%%%%
%FILE DATA:	Soccer Computational Problem for MiniZinc Models
%AUTHORS:	Robinson Duque, Alejandro Arbelaez, Juan Francisco Díaz
%CONTACT:  	robinson.duque@correounivalle.edu.co 
%LAST UPDATE:	May, 2018 
%ROUND ROBIN:2
%TEAMS:20
%PRESENT FIXTURE:29
%FIXTURES TO PLAY:9
%GAMES TO PLAY:90
%%%%%%%%%%%%%%%%%%%%%%%%%%%%%%%%%%%%%%%%%%%%%%%%%%%%%%%%%%%%%%%%%%%%%%%%%
%Number of teams:
n=20;

%For the purpose of our models, we offer two representations of the games to play, namely fixtures and games to play:

%Fixtures to play:
%fixtures=[|0,0,0,0,1,1,0,1,0,1,0,1,1,0,1,1,0,1,0,0
%|0,0,0,0,1,0,1,1,0,1,1,1,1,0,0,1,0,1,0,0
%|0,0,0,1,1,0,0,0,1,0,1,1,0,1,1,1,0,1,0,0
%|0,0,1,0,0,1,1,0,1,0,1,0,1,0,1,0,1,1,0,0
%|1,1,1,0,0,1,0,1,0,1,1,0,0,1,0,1,0,0,0,0
%|1,0,0,1,1,0,1,1,1,1,0,0,0,0,1,0,1,0,0,0
%|0,1,0,1,0,1,0,0,1,1,1,1,0,0,0,1,1,0,0,0
%|1,1,0,0,1,1,0,0,0,0,1,0,0,1,0,0,0,1,1,1
%|0,0,1,1,0,1,1,0,0,0,0,0,1,1,0,0,1,0,1,1
%|1,1,0,0,1,1,1,0,0,0,1,0,0,0,0,1,1,0,0,1
%|0,1,1,1,1,0,1,1,0,1,0,0,0,0,1,0,0,0,0,1
%|1,1,1,0,0,0,1,0,0,0,0,0,1,1,0,1,0,0,1,1
%|1,1,0,1,0,0,0,0,1,0,0,1,0,1,1,0,1,0,1,0
%|0,0,1,0,1,0,0,1,1,0,0,1,1,0,0,1,1,0,0,1
%|1,0,1,1,0,1,0,0,0,0,1,0,1,0,0,0,0,1,1,1
%|1,1,1,0,1,0,1,0,0,1,0,1,0,1,0,0,0,0,1,0
%|0,0,0,1,0,1,1,0,1,1,0,0,1,1,0,0,0,1,1,0
%|1,1,1,1,0,0,0,1,0,0,0,0,0,0,1,0,1,0,1,1
%|0,0,0,0,0,0,0,1,1,0,0,1,1,0,1,1,1,1,0,1
%|0,0,0,0,0,0,0,1,1,1,1,1,0,1,1,0,0,1,1,0|];

%Played Fixtures:
%PlayedFixtures=[|0,2,2,2,1,1,2,1,2,1,2,1,1,2,1,1,2,1,2,2
%|2,0,2,2,1,2,1,1,2,1,1,1,1,2,2,1,2,1,2,2
%|2,2,0,1,1,2,2,2,1,2,1,1,2,1,1,1,2,1,2,2
%|2,2,1,0,2,1,1,2,1,2,1,2,1,2,1,2,1,1,2,2
%|1,1,1,2,0,1,2,1,2,1,1,2,2,1,2,1,2,2,2,2
%|1,2,2,1,1,0,1,1,1,1,2,2,2,2,1,2,1,2,2,2
%|2,1,2,1,2,1,0,2,1,1,1,1,2,2,2,1,1,2,2,2
%|1,1,2,2,1,1,2,0,2,2,1,2,2,1,2,2,2,1,1,1
%|2,2,1,1,2,1,1,2,0,2,2,2,1,1,2,2,1,2,1,1
%|1,1,2,2,1,1,1,2,2,0,1,2,2,2,2,1,1,2,2,1
%|2,1,1,1,1,2,1,1,2,1,0,2,2,2,1,2,2,2,2,1
%|1,1,1,2,2,2,1,2,2,2,2,0,1,1,2,1,2,2,1,1
%|1,1,2,1,2,2,2,2,1,2,2,1,0,1,1,2,1,2,1,2
%|2,2,1,2,1,2,2,1,1,2,2,1,1,0,2,1,1,2,2,1
%|1,2,1,1,2,1,2,2,2,2,1,2,1,2,0,2,2,1,1,1
%|1,1,1,2,1,2,1,2,2,1,2,1,2,1,2,0,2,2,1,2
%|2,2,2,1,2,1,1,2,1,1,2,2,1,1,2,2,0,1,1,2
%|1,1,1,1,2,2,2,1,2,2,2,2,2,2,1,2,1,0,1,1
%|2,2,2,2,2,2,2,1,1,2,2,1,1,2,1,1,1,1,0,1
%|2,2,2,2,2,2,2,1,1,1,1,1,2,1,1,2,2,1,1,0|];

%Games to play:
games=[|4,3|5,1|5,2|5,3|6,1|6,4|6,5|7,2|7,4|7,6|8,1|8,2|8,5|8,6|9,3|9,4|9,6|9,7|10,1|10,2|10,5|10,6|10,7|11,2|11,3|11,4|11,5|11,7|11,8|11,10|12,1|12,2|12,3|12,7|13,1|13,2|13,4|13,9|13,12|14,3|14,5|14,8|14,9|14,12|14,13|15,1|15,3|15,4|15,6|15,11|15,13|16,1|16,2|16,3|16,5|16,7|16,10|16,12|16,14|17,4|17,6|17,7|17,9|17,10|17,13|17,14|18,1|18,2|18,3|18,4|18,8|18,15|18,17|19,8|19,9|19,12|19,13|19,15|19,16|19,17|19,18|20,8|20,9|20,10|20,11|20,12|20,14|20,15|20,18|20,19|];

%Played Games:
%PlayedGames=[|2,1|2,1|3,1|3,1|3,2|3,2|4,1|4,1|4,2|4,2|4,3|5,1|5,2|5,3|5,4|5,4|6,1|6,2|6,2|6,3|6,3|6,4|6,5|7,1|7,1|7,2|7,3|7,3|7,4|7,5|7,5|7,6|8,1|8,2|8,3|8,3|8,4|8,4|8,5|8,6|8,7|8,7|9,1|9,1|9,2|9,2|9,3|9,4|9,5|9,5|9,6|9,7|9,8|9,8|10,1|10,2|10,3|10,3|10,4|10,4|10,5|10,6|10,7|10,8|10,8|10,9|10,9|11,1|11,1|11,2|11,3|11,4|11,5|11,6|11,6|11,7|11,8|11,9|11,9|11,10|12,1|12,2|12,3|12,4|12,4|12,5|12,5|12,6|12,6|12,7|12,8|12,8|12,9|12,9|12,10|12,10|12,11|12,11|13,1|13,2|13,3|13,3|13,4|13,5|13,5|13,6|13,6|13,7|13,7|13,8|13,8|13,9|13,10|13,10|13,11|13,11|13,12|14,1|14,1|14,2|14,2|14,3|14,4|14,4|14,5|14,6|14,6|14,7|14,7|14,8|14,9|14,10|14,10|14,11|14,11|14,12|14,13|15,1|15,2|15,2|15,3|15,4|15,5|15,5|15,6|15,7|15,7|15,8|15,8|15,9|15,9|15,10|15,10|15,11|15,12|15,12|15,13|15,14|15,14|16,1|16,2|16,3|16,4|16,4|16,5|16,6|16,6|16,7|16,8|16,8|16,9|16,9|16,10|16,11|16,11|16,12|16,13|16,13|16,14|16,15|16,15|17,1|17,1|17,2|17,2|17,3|17,3|17,4|17,5|17,5|17,6|17,7|17,8|17,8|17,9|17,10|17,11|17,11|17,12|17,12|17,13|17,14|17,15|17,15|17,16|17,16|18,1|18,2|18,3|18,4|18,5|18,5|18,6|18,6|18,7|18,7|18,8|18,9|18,9|18,10|18,10|18,11|18,11|18,12|18,12|18,13|18,13|18,14|18,14|18,15|18,16|18,16|18,17|19,1|19,1|19,2|19,2|19,3|19,3|19,4|19,4|19,5|19,5|19,6|19,6|19,7|19,7|19,8|19,9|19,10|19,10|19,11|19,11|19,12|19,13|19,14|19,14|19,15|19,16|19,17|19,18|20,1|20,1|20,2|20,2|20,3|20,3|20,4|20,4|20,5|20,5|20,6|20,6|20,7|20,7|20,8|20,9|20,10|20,11|20,12|20,13|20,13|20,14|20,15|20,16|20,16|20,17|20,17|20,18|20,19|];

%Played Games - Win Results:
%% 0  0  0  0  0  0  0  0  0  0  0  0  0  0  0  0  0  0  0  0
%% 0  0  0  0  0  0  1  1  0  0  0  0  0  0  0  0  0  0  0  1
%% 1  0  0  0  1  0  0  0  1  2  1  0  0  0  1  0  2  0  0  1
%% 0  0  0  0  0  0  0  0  0  0  0  0  0  0  0  0  0  0  0  0
%% 0  1  0  0  0  0  0  0  0  0  1  0  2  0  0  0  2  2  0  2
%% 0  0  0  1  1  0  0  1  1  0  1  1  0  0  0  2  0  0  0  0
%% 0  0  0  0  0  0  0  0  0  0  0  1  0  0  0  0  1  0  2  2
%% 0  0  0  0  0  0  0  0  0  0  0  0  0  0  0  0  0  0  0  0
%% 0  0  0  0  0  0  0  0  0  0  0  0  0  0  0  0  0  0  0  0
%% 1  0  0  2  1  0  1  0  0  0  0  1  0  0  0  0  0  0  2  0
%% 0  0  0  0  0  0  1  1  0  0  0  0  2  0  1  0  0  0  0  0
%% 0  0  0  0  0  0  0  0  0  0  0  0  0  0  0  0  0  0  0  1
%% 0  0  0  0  0  1  1  0  1  1  0  0  0  0  1  0  0  0  0  0
%% 2  2  1  0  1  2  0  1  1  0  0  0  0  0  0  1  1  0  2  0
%% 0  0  0  0  0  0  0  0  0  0  0  0  0  0  0  0  0  0  0  0
%% 1  1  0  0  0  0  0  0  0  0  0  1  2  0  0  0  0  2  0  0
%% 0  0  0  0  0  0  0  0  0  0  0  0  0  0  0  0  0  0  0  0
%% 1  0  0  0  0  0  1  1  0  0  0  1  0  0  1  0  1  0  0  1
%% 0  0  0  2  0  1  0  0  0  0  1  0  0  0  1  0  1  0  0  1
%% 0  0  0  0  0  0  0  0  0  0  0  0  0  0  1  0  0  0  0  0
%Played Games - Tie Results:
%% 0  2  1  2  1  1  2  1  2  0  2  1  1  0  1  0  2  0  2  2
%% 2  0  2  2  0  2  0  0  2  1  1  1  1  0  2  0  2  1  2  1
%% 1  2  0  1  0  2  2  2  0  0  0  1  2  0  0  1  0  1  2  1
%% 2  2  1  0  2  0  1  2  1  0  1  2  1  2  1  2  1  1  0  2
%% 1  0  0  2  0  0  2  1  2  0  0  2  0  0  2  1  0  0  2  0
%% 1  2  2  0  0  0  1  0  0  1  1  1  1  0  1  0  1  2  1  2
%% 2  0  2  1  2  1  0  2  1  0  0  0  1  2  2  1  0  1  0  0
%% 1  0  2  2  1  0  2  0  2  2  0  2  2  0  2  2  2  0  1  1
%% 2  2  0  1  2  0  1  2  0  2  2  2  0  0  2  2  1  2  1  1
%% 0  1  0  0  0  1  0  2  2  0  1  1  1  2  2  1  1  2  0  1
%% 2  1  0  1  0  1  0  0  2  1  0  2  0  2  0  2  2  2  1  1
%% 1  1  1  2  2  1  0  2  2  1  2  0  1  1  2  0  2  1  1  0
%% 1  1  2  1  0  1  1  2  0  1  0  1  0  1  0  0  1  2  1  2
%% 0  0  0  2  0  0  2  0  0  2  2  1  1  0  2  0  0  2  0  1
%% 1  2  0  1  2  1  2  2  2  2  0  2  0  2  0  2  2  0  0  0
%% 0  0  1  2  1  0  1  2  2  1  2  0  0  0  2  0  2  0  1  2
%% 2  2  0  1  0  1  0  2  1  1  2  2  1  0  2  2  0  0  0  2
%% 0  1  1  1  0  2  1  0  2  2  2  1  2  2  0  0  0  0  1  0
%% 2  2  2  0  2  1  0  1  1  0  1  1  1  0  0  1  0  1  0  0
%% 2  1  1  2  0  2  0  1  1  1  1  0  2  1  0  2  2  0  0  0
%Played Games - Lose Results:
%% 0  0  1  0  0  0  0  0  0  1  0  0  0  2  0  1  0  1  0  0
%% 0  0  0  0  1  0  0  0  0  0  0  0  0  2  0  1  0  0  0  0
%% 0  0  0  0  0  0  0  0  0  0  0  0  0  1  0  0  0  0  0  0
%% 0  0  0  0  0  1  0  0  0  2  0  0  0  0  0  0  0  0  2  0
%% 0  0  1  0  0  1  0  0  0  1  0  0  0  1  0  0  0  0  0  0
%% 0  0  0  0  0  0  0  0  0  0  0  0  1  2  0  0  0  0  1  0
%% 0  1  0  0  0  0  0  0  0  1  1  0  1  0  0  0  0  1  0  0
%% 0  1  0  0  0  1  0  0  0  0  1  0  0  1  0  0  0  1  0  0
%% 0  0  1  0  0  1  0  0  0  0  0  0  1  1  0  0  0  0  0  0
%% 0  0  2  0  0  0  0  0  0  0  0  0  1  0  0  0  0  0  0  0
%% 0  0  1  0  1  1  0  0  0  0  0  0  0  0  0  0  0  0  1  0
%% 0  0  0  0  0  1  1  0  0  1  0  0  0  0  0  1  0  1  0  0
%% 0  0  0  0  2  0  0  0  0  0  2  0  0  0  0  2  0  0  0  0
%% 0  0  0  0  0  0  0  0  0  0  0  0  0  0  0  0  0  0  0  0
%% 0  0  1  0  0  0  0  0  0  0  1  0  1  0  0  0  0  1  1  1
%% 0  0  0  0  0  2  0  0  0  0  0  0  0  1  0  0  0  0  0  0
%% 0  0  2  0  2  0  1  0  0  0  0  0  0  1  0  0  0  1  1  0
%% 0  0  0  0  2  0  0  0  0  0  0  0  0  0  0  2  0  0  0  0
%% 0  0  0  0  0  0  2  0  0  2  0  0  0  2  0  0  0  0  0  0
%% 0  1  1  0  2  0  2  0  0  0  0  1  0  0  0  0  0  1  1  0

%%Initial points:
iPoints=[23, 31, 48, 24, 45, 41, 36, 24, 25, 42, 35, 26, 33, 57, 23, 40, 21, 39, 37, 22];

%%Initial positions:
%iPositions=[18, 12, 2, 16, 3, 5, 9, 15, 14, 4, 10, 13, 11, 1, 17, 6, 20, 7, 8, 19];

%%Position Constraints:
%numberPositionConstraints=1;

%%Total Fixtures:
%totalFixtures=38;

%%Fixtures to Play:
%fixturesToPlay=9;

%%Position Constraints Built With
%wantedPoints=[3, 3, 3, 0, 0, 3, 3, 1, 3, 1, 3, 3, 1, 1, 1, 0, 3, 3, 3, 0, 3, 3, 3, 1, 3, 3, 0, 1, 1, 0, 1, 3, 1, 0, 3, 1, 1, 1, 3, 3, 0, 1, 1, 1, 3, 1, 3, 3, 0, 0, 1, 1, 1, 1, 1, 3, 0, 3, 3, 0, 3, 1, 0, 1, 3, 0, 3, 0, 0, 3, 3, 1, 0, 3, 1, 3, 0, 3, 3, 3, 1, 0, 3, 3, 1, 0, 3, 3, 0, 1];

%POSITION CONSTRAINTS
%%[|teamID, operator, position|...]
%%operators index:
%%%1 for =  operator
%%%2 for >  operator
%%%3 for >= operator
%%%4 for <  operator
%%%5 for <= operator

positionConstraints=[|20,1,15|];

%SCORE VECTOR CONSTRAINTS
%%[|teamID, operator, wantedPoints|...]
%%operators index:
%%%1 for =  operator
%%%2 for >  operator
%%%3 for >= operator
%%%4 for <  operator
%%%5 for <= operator

%scoreVectorConstraints=[|20,1,36|];

%Instance Features:
%features=T,FP,TF,C,C/T,C/TF,FP/TF,FP/T,FP*C/T,FP*T/C,(C/T)*(FP/TF),Distance,Distance/C,Distance/T,Distance/(C*T)
%values=20,9,38,1,0.05,0.02631578947368421,0.2368421052631579,0.45,0.45,180.0,0.0118421052631579,4,4.0,0.2,0.2



gamesOfEveryTeam=[9,9,9,9,9,9,9,9,9,9,9,9,9,9,9,9,9,9,9,9];
weights=[|62,13,0,25|38,59,0,3|26,28,0,46|69,2,0,29|15,79,0,6|86,12,0,2|24,61,0,15|83,13,0,4|97,3,0,0|88,5,0,7|25,43,0,32|72,27,0,1|1,40,0,59|90,2,0,8|18,6,0,76|82,15,0,3|25,62,0,13|67,16,0,17|22,57,0,21|33,41,0,26|32,57,0,11|31,52,0,17|47,34,0,19|50,32,0,18|49,41,0,10|1,75,0,24|0,2,0,98|69,27,0,4|94,6,0,0|14,52,0,34|45,30,0,25|86,13,0,1|69,2,0,29|41,54,0,5|82,5,0,13|40,29,0,31|39,9,0,52|62,30,0,8|28,56,0,16|53,12,0,35|75,20,0,5|76,5,0,19|63,3,0,34|9,87,0,4|94,1,0,5|12,33,0,55|81,17,0,2|8,56,0,36|63,35,0,2|82,7,0,11|87,12,0,1|22,68,0,10|2,87,0,11|73,12,0,15|64,28,0,8|81,3,0,16|90,9,0,1|18,48,0,34|71,11,0,18|94,4,0,2|44,40,0,16|98,0,0,2|53,17,0,30|20,77,0,3|70,10,0,20|25,61,0,14|73,19,0,8|22,71,0,7|59,17,0,24|85,0,0,15|91,5,0,4|1,44,0,55|49,51,0,0|1,2,0,97|6,34,0,60|48,34,0,18|62,8,0,30|57,15,0,28|50,33,0,17|68,14,0,18|26,25,0,49|89,11,0,0|40,60,0,0|87,10,0,3|19,65,0,16|93,6,0,1|37,26,0,37|81,1,0,18|88,6,0,6|100,0,0,0|];